Problem:    esameProfitableSchedulingUnder
Rows:       46
Columns:    27 (27 integer, 27 binary)
Non-zeros:  150
Status:     INTEGER OPTIMAL
Objective:  z = 279 (MINimum)

   No.   Row name        Activity     Lower bound   Upper bound
------ ------------    ------------- ------------- -------------
     1 jobMacchina[1]
                                   1                           1 
     2 jobMacchina[2]
                                   1                           1 
     3 jobMacchina[3]
                                   1                           1 
     4 jobMacchina[4]
                                   1                           1 
     5 jobMacchina[5]
                                   1                           1 
     6 jobMacchina[6]
                                   1                           1 
     7 jobMacchina[7]
                                   1                           1 
     8 jobMacchina[8]
                                   1                           1 
     9 jobMacchina[9]
                                   1                           1 
    10 jobMacchinaUndersubscribed[1]
                                   1             1             = 
    11 jobMacchinaUndersubscribed[2]
                                   1             1             = 
    12 jobMacchinaUndersubscribed[3]
                                   1             1             = 
    13 jobMacchinaUndersubscribed[4]
                                   1             1             = 
    14 jobMacchinaUndersubscribed[5]
                                   1             1             = 
    15 jobMacchinaUndersubscribed[6]
                                   1             1             = 
    16 jobMacchinaUndersubscribed[7]
                                   1             1             = 
    17 jobMacchinaUndersubscribed[8]
                                   1             1             = 
    18 jobMacchinaUndersubscribed[9]
                                   1             1             = 
    19 jobMacchinaCompatibilita[1,2]
                                   0            -0             = 
    20 jobMacchinaCompatibilita[2,2]
                                   0            -0             = 
    21 jobMacchinaCompatibilita[4,3]
                                   0            -0             = 
    22 jobMacchinaCompatibilita[5,3]
                                   0            -0             = 
    23 jobMacchinaCompatibilita[8,1]
                                   0            -0             = 
    24 jobMacchinaCompatibilita[9,1]
                                   0            -0             = 
    25 jobJobCompatibilita[1,1,2]
                                   1                           1 
    26 jobJobCompatibilita[1,2,2]
                                   0                           1 
    27 jobJobCompatibilita[1,3,2]
                                   1                           1 
    28 jobJobCompatibilita[3,1,4]
                                   0                           1 
    29 jobJobCompatibilita[3,2,4]
                                   1                           1 
    30 jobJobCompatibilita[3,3,4]
                                   1                           1 
    31 jobJobCompatibilita[5,1,6]
                                   1                           1 
    32 jobJobCompatibilita[5,2,6]
                                   1                           1 
    33 jobJobCompatibilita[5,3,6]
                                   0                           1 
    34 jobJobCompatibilita[7,1,8]
                                   1                           1 
    35 jobJobCompatibilita[7,1,9]
                                   1                           1 
    36 jobJobCompatibilita[7,2,8]
                                   0                           1 
    37 jobJobCompatibilita[7,2,9]
                                   1                           1 
    38 jobJobCompatibilita[7,3,8]
                                   1                           1 
    39 jobJobCompatibilita[7,3,9]
                                   0                           1 
    40 jobJobCompatibilita[8,1,9]
                                   0                           1 
    41 jobJobCompatibilita[8,2,9]
                                   1                           1 
    42 jobJobCompatibilita[8,3,9]
                                   1                           1 
    43 tempiMassimi[1]
                                 362                         380 
    44 tempiMassimi[2]
                                 340                         360 
    45 tempiMassimi[3]
                                 338                         350 
    46 z                         279                             

   No. Column name       Activity     Lower bound   Upper bound
------ ------------    ------------- ------------- -------------
     1 x[1,1]       *              1             0             1 
     2 x[1,2]       *              0             0             1 
     3 x[1,3]       *              0             0             1 
     4 x[2,1]       *              0             0             1 
     5 x[2,2]       *              0             0             1 
     6 x[2,3]       *              1             0             1 
     7 x[3,1]       *              0             0             1 
     8 x[3,2]       *              0             0             1 
     9 x[3,3]       *              1             0             1 
    10 x[4,1]       *              0             0             1 
    11 x[4,2]       *              1             0             1 
    12 x[4,3]       *              0             0             1 
    13 x[5,1]       *              1             0             1 
    14 x[5,2]       *              0             0             1 
    15 x[5,3]       *              0             0             1 
    16 x[6,1]       *              0             0             1 
    17 x[6,2]       *              1             0             1 
    18 x[6,3]       *              0             0             1 
    19 x[7,1]       *              1             0             1 
    20 x[7,2]       *              0             0             1 
    21 x[7,3]       *              0             0             1 
    22 x[8,1]       *              0             0             1 
    23 x[8,2]       *              0             0             1 
    24 x[8,3]       *              1             0             1 
    25 x[9,1]       *              0             0             1 
    26 x[9,2]       *              1             0             1 
    27 x[9,3]       *              0             0             1 

Integer feasibility conditions:

KKT.PE: max.abs.err = 0.00e+00 on row 0
        max.rel.err = 0.00e+00 on row 0
        High quality

KKT.PB: max.abs.err = 0.00e+00 on row 0
        max.rel.err = 0.00e+00 on row 0
        High quality

End of output
